<number of tasks>
50

<cycle time>
1000

<order strength>
0.595


<task times>
1 163
2 270
3 283
4 217
5 216
6 107
7 57
8 314
9 184
10 104
11 37
12 137
13 223
14 97
15 225
16 59
17 146
18 176
19 25
20 166
21 119
22 230
23 65
24 243
25 89
26 29
27 112
28 162
29 116
30 297
31 243
32 178
33 106
34 128
35 162
36 181
37 110
38 247
39 186
40 150
41 167
42 203
43 64
44 251
45 208
46 195
47 61
48 77
49 265
50 75

<precedence relations>
1,9
2,9
3,43
4,30
5,6
5,7
5,8
6,9
7,9
8,10
8,11
8,12
8,31
9,13
9,14
9,15
9,16
9,17
9,18
9,20
10,30
12,19
13,38
14,30
15,23
16,21
16,22
17,25
18,21
18,22
18,23
19,25
20,39
21,30
22,24
22,25
22,28
23,24
23,26
23,27
24,30
25,30
26,30
27,37
28,29
28,31
28,38
29,43
30,32
30,33
30,34
30,35
30,36
31,36
31,37
32,38
32,42
33,37
33,38
33,42
34,40
34,41
34,42
34,43
35,39
35,41
36,40
36,41
36,42
36,43
37,43
38,43
40,44
41,45
43,46
43,47
43,48
43,49
43,50

<end>
